NAME: berlin52-16-1
TYPE: TSP
COMMENT: min_cost = 3602.61
DIMENSION: 16
EDGE_WEIGHT_TYPE: EUC_2D
NODE_COORD_SECTION
1 700 580
2 835 625
3 830 610
4 1320 315
5 25 230
6 660 180
7 700 500
8 25 185
9 945 685
10 555 815
11 845 655
12 1215 245
13 420 555
14 760 650
15 595 360
16 95 260
EOF
